SAT/7472357_20.param
$ LBS instance with n = 20, seed = 7472357
letting cards be [18,24,14,10,15,43,19,37,31,36,50,23,17,39,30,11,45,29,0,6]
